benchmarks/bfuzz0/29516111062720327939158281664429019201.smt2
(set-logic QF_FP)
(declare-const x0 (_ FloatingPoint 8 24))
(assert (fp.lt (fp.sub RNE (fp.neg x0) (fp.sub RNE x0 x0)) (fp.div RNE (fp.sub RNE x0 x0) (fp.sub RNE x0 x0))))
(assert (fp.gt (fp.mul RNE (fp.add RNE x0 x0) (fp.neg x0)) (fp.mul RNE (fp.sub RNE x0 x0) (fp.mul RNE x0 x0))))
(check-sat)
