db/data/29516111062720327939158281664429019201.z3.out
unsat
-------------------
16.551725685
